NAME : cp-chessboard-n25
COMMENT : (Claudio Procida)
TYPE : CVRP
DIMENSION : 25
EDGE_WEIGHT_TYPE : EUC_2D
CAPACITY : 20
NODE_COORD_SECTION
1 10 10
2 0 0
3 5 0
4 10 0
5 15 0
6 20 0
7 0 5
8 5 5
9 10 5
10 15 5
11 20 5
12 0 10
13 5 10
14 15 10
15 20 10
16 0 15
17 5 15
18 10 15
19 15 15
20 20 15
21 0 20
22 5 20
23 10 20
24 15 20
25 20 20
DEMAND_SECTION
1 0
2 10
3 10
4 10
5 10
6 10
7 10
8 10
9 10
10 10
11 10
12 10
13 10
14 10
15 10
16 10
17 10
18 10
19 10
20 10
21 10
22 10
23 10
24 10
25 10
DEPOT_SECTION
1
-1
EOF
